1
50
34
81
38
66
8
52
46
61
74
7
75
67
36
29
58
22
42
23
11
90
17
94
32
97
98
49
70
89
27
24
88
79
13
41
84
15
63
54
91
77
43
71
4
44
93
60
53
5
3
83
40
6
59
85
18
25
20
9
10
26
87
55
92
19
37
51
100
2
48
30
35
62
64
16
96
86
65
14
68
33
45
99
31
78
80
76
72
57
69
73
39
82
47
21
56
95
28
12
1
